1 of 1 MIP starts provided solutions.
MIP start 'm1' defined initial solution with objective 102162.0000.
Tried aggregator 1 time.
MIP Presolve eliminated 0 rows and 1 columns.
MIP Presolve modified 334500 coefficients.
Reduced MIP has 60100 rows, 30400 columns, and 9148552 nonzeros.
Reduced MIP has 30000 binaries, 0 generals, 0 SOSs, and 0 indicators.
Presolve time = 7.85 sec. (4586.86 ticks)
Probing time = 0.26 sec. (99.97 ticks)
Tried aggregator 1 time.
Reduced MIP has 60100 rows, 30400 columns, and 9148552 nonzeros.
Reduced MIP has 30000 binaries, 0 generals, 0 SOSs, and 0 indicators.
Presolve time = 4.80 sec. (2261.16 ticks)
Probing time = 0.26 sec. (99.95 ticks)
Clique table members: 100.
MIP emphasis: balance optimality and feasibility.
MIP search method: dynamic search.
Parallel mode: none, using 1 thread.
Root relaxation solution time = 2.09 sec. (966.57 ticks)

        Nodes                                         Cuts/
   Node  Left     Objective  IInf  Best Integer    Best Bound    ItCnt     Gap

*     0+    0                       102162.0000   2.30066e+07      480     --- 
      0     0   102195.9422    38   102162.0000   102195.9422      480    0.03%
      0     0   102177.4853    20   102162.0000      Cuts: 20      512    0.02%
      0     0   102172.2495    10   102162.0000      Cuts: 27      530    0.01%
*     0+    0                       102168.0000   102172.2495      530    0.00%

Implied bound cuts applied:  4
Flow cuts applied:  18
Mixed integer rounding cuts applied:  15
Gomory fractional cuts applied:  8

Root node processing (before b&c):
  Real time             =   31.51 sec. (16279.22 ticks)
Sequential b&c:
  Real time             =    0.00 sec. (0.00 ticks)
                          ------------
Total (root+branch&cut) =   31.51 sec. (16279.22 ticks)
